db/data/13044256244651327092612816215273675100.z3.out
-------------------
2500.179196255
